50
17513

308 527
509 6
750 279
450 765
177 95
920 814
866 121
203 501
116 544
743 906
81 989
905 301
48 952
568 342
366 219
277 67
367 879
592 254
543 93
541 444
224 576
542 282
469 680
775 438
316 911
772 629
770 789
442 31
354 470
597 151
462 451
199 535
752 272
504 840
143 912
598 429
635 99
909 75
116 586
18 905
16 282
678 197
886 227
281 711
427 449
499 730
951 390
626 202
655 373
135 218
